RT is False
Default write of storage_offers_DA.csv just to have a file (but constraint should be inactive)
Reading model...
...model read.
creating competitive generators file...
...competitive generators recorded.
Loading data...
.. day-ahead data with real-time VRE data read.
Compiling instance...
...instance created.
Creating Offer Mitigation (model will solve as dispatch if TRUE)...
Solving...

Welcome to IBM(R) ILOG(R) CPLEX(R) Interactive Optimizer 12.8.0.0
  with Simplex, Mixed Integer & Barrier Optimizers
5725-A06 5725-A29 5724-Y48 5724-Y49 5724-Y54 5724-Y55 5655-Y21
Copyright IBM Corp. 1988, 2017.  All Rights Reserved.

Type 'help' for a list of available commands.
Type 'help' followed by a command name for more
information on commands.

CPLEX> Logfile 'cplex.log' closed.
Logfile 'C:\Users\llavi\Desktop\test919\logs\tmpi4mm9v61.cplex.log' open.
CPLEX> New value for parallel optimization mode: -1
CPLEX> New value for mixed integer optimality gap tolerance: 0.01
CPLEX> New value for integrality tolerance: 1e-09
CPLEX> New value for feasibility tolerance: 0.01
CPLEX> New value for deterministic time limit in ticks: 75000
CPLEX> Problem 'C:\Users\llavi\Desktop\test919\logs\tmpuzb4uf8y.pyomo.lp' read.
Read time = 0.06 sec. (3.03 ticks)
CPLEX> Problem name         : C:\Users\llavi\Desktop\test919\logs\tmpuzb4uf8y.pyomo.lp
Objective sense      : Minimize
Variables            :   26465  [Nneg: 1,  Box: 22000,  Free: 4464]
Objective nonzeros   :    2496
Linear constraints   :   27515  [Less: 14006,  Greater: 4416,  Equal: 9093]
  Nonzeros           :   89171
  RHS nonzeros       :   12275

Variables            : Min LB: -5000.000        Max UB: 1000000.       
Objective nonzeros   : Min   : 15.73158         Max   : 124.0997       
Linear constraints   :
  Nonzeros           : Min   : 0.8500000        Max   : 3000.000       
  RHS nonzeros       : Min   : 0.04166667       Max   : 5000.000       
CPLEX> CPXPARAM_Simplex_Tolerances_Feasibility          0.01
CPXPARAM_Parallel                                -1
CPXPARAM_DetTimeLimit                            75000
CPXPARAM_MIP_Tolerances_MIPGap                   0.01
CPXPARAM_MIP_Tolerances_Integrality              1.0000000000000001e-09
Parallel mode: opportunistic, using up to 4 threads for concurrent optimization.
Tried aggregator 1 time.
LP Presolve eliminated 21401 rows and 15893 columns.
Aggregator did 720 substitutions.
Reduced LP has 5394 rows, 9852 columns, and 31775 nonzeros.
Presolve time = 0.05 sec. (22.47 ticks)

Iteration log . . .
Iteration:     1   Dual objective     =             0.000000
Perturbation started.
Iteration:   101   Dual objective     =             0.000000
Iteration:   371   Dual objective     =             1.440935
Iteration:   650   Dual objective     =             1.974979
Iteration:   945   Dual objective     =             2.114182
Iteration:  1149   Dual objective     =             2.234193
Iteration:  1502   Dual objective     =             2.292975
Iteration:  1804   Dual objective     =             2.321147
Iteration:  2096   Dual objective     =             2.347653
Iteration:  2399   Dual objective     =             2.362870
Iteration:  2709   Dual objective     =             2.373968
Iteration:  3085   Dual objective     =             2.385065
Iteration:  3440   Dual objective     =             2.391830
Iteration:  3734   Dual objective     =         27419.942062
Iteration:  4120   Dual objective     =         43869.998834
Removing perturbation.

Dual simplex solved model.


Dual simplex - Optimal:  Objective =  4.9512482838e+04
Solution time =    0.16 sec.  Iterations = 4549 (0)
Deterministic time = 95.89 ticks  (614.67 ticks/sec)

CPLEX> Solution written to file 'C:\Users\llavi\Desktop\test919\logs\tmpecrtuffs.cplex.sol'.
CPLEX> Exporting results... 
...storage offer mitigation file created
Converting model to MPEC...
...converted
NOTE: initial MIP solve with only storage competitive to get feasible solution
Solving...

Welcome to IBM(R) ILOG(R) CPLEX(R) Interactive Optimizer 12.8.0.0
  with Simplex, Mixed Integer & Barrier Optimizers
5725-A06 5725-A29 5724-Y48 5724-Y49 5724-Y54 5724-Y55 5655-Y21
Copyright IBM Corp. 1988, 2017.  All Rights Reserved.

Type 'help' for a list of available commands.
Type 'help' followed by a command name for more
information on commands.

CPLEX> Logfile 'cplex.log' closed.
Logfile 'C:\Users\llavi\Desktop\test919\logs\tmpg3i5fndq.cplex.log' open.
CPLEX> New value for parallel optimization mode: -1
CPLEX> New value for mixed integer optimality gap tolerance: 0.01
CPLEX> New value for integrality tolerance: 1e-09
CPLEX> New value for feasibility tolerance: 0.01
CPLEX> New value for deterministic time limit in ticks: 75000
CPLEX> Problem 'C:\Users\llavi\Desktop\test919\logs\tmps_a5yelb.pyomo.lp' read.
Read time = 0.31 sec. (13.96 ticks)
CPLEX> Problem name         : C:\Users\llavi\Desktop\test919\logs\tmps_a5yelb.pyomo.lp
Objective sense      : Maximize
Variables            :   53805  [Nneg: 1,  Box: 22000,  Free: 4464,
                                 Binary: 27340]
Objective nonzeros   :    9082
Linear constraints   :  123205  [Less: 41346,  Greater: 59096,  Equal: 22763]
  Nonzeros           :  291709
  RHS nonzeros       :   67423

Variables            : Min LB: -5000.000        Max UB: 1000000.       
Objective nonzeros   : Min   : 0.04166667       Max   : 2500.000       
Linear constraints   :
  Nonzeros           : Min   : 0.04166667       Max   : 1000000.       
  RHS nonzeros       : Min   : 0.04166667       Max   : 1000000.       
CPLEX> CPXPARAM_Simplex_Tolerances_Feasibility          0.01
CPXPARAM_Parallel                                -1
CPXPARAM_DetTimeLimit                            75000
CPXPARAM_MIP_Tolerances_MIPGap                   0.01
CPXPARAM_MIP_Tolerances_Integrality              1.0000000000000001e-09
Tried aggregator 3 times.
MIP Presolve eliminated 88641 rows and 18993 columns.
MIP Presolve added 3358 rows and 0 columns.
MIP Presolve modified 23892 coefficients.
Aggregator did 12964 substitutions.
Reduced MIP has 24958 rows, 21296 columns, and 71141 nonzeros.
Reduced MIP has 8429 binaries, 0 generals, 0 SOSs, and 0 indicators.
Presolve time = 0.31 sec. (165.28 ticks)
Probing fixed 386 vars, tightened 2910 bounds.
Probing time = 3.17 sec. (897.90 ticks)
Tried aggregator 2 times.
MIP Presolve eliminated 872 rows and 772 columns.
MIP Presolve modified 2238 coefficients.
Aggregator did 37 substitutions.
Reduced MIP has 24049 rows, 20487 columns, and 68514 nonzeros.
Reduced MIP has 8043 binaries, 0 generals, 0 SOSs, and 0 indicators.
Presolve time = 0.13 sec. (54.10 ticks)
Probing time = 0.06 sec. (15.33 ticks)
Clique table members: 6589.
MIP emphasis: balance optimality and feasibility.
MIP search method: dynamic search.
Parallel mode: opportunistic, using up to 4 threads.
Root relaxation solution time = 0.45 sec. (429.13 ticks)

        Nodes                                         Cuts/
   Node  Left     Objective  IInf  Best Integer    Best Bound    ItCnt     Gap

      0     0        0.0000   618                      0.0000     2657         
*     0     0      integral     0        0.0000        0.0000     2657    0.00%
Elapsed time = 6.89 sec. (2474.15 ticks, tree = 0.01 MB, solutions = 1)

Root node processing (before b&c):
  Real time             =    6.91 sec. (2476.43 ticks)
Parallel b&c, 4 threads:
  Real time             =    0.00 sec. (0.00 ticks)
  Sync time (average)   =    0.00 sec.
  Wait time (average)   =    0.00 sec.
                          ------------
Total (root+branch&cut) =    6.91 sec. (2476.43 ticks)

Solution pool: 1 solution saved.

MIP - Integer optimal solution:  Objective =  7.7852746472e-10
Solution time =    6.91 sec.  Iterations = 2657  Nodes = 0
Deterministic time = 2476.58 ticks  (358.56 ticks/sec)

CPLEX> Incumbent solution written to file 'C:\Users\llavi\Desktop\test919\logs\tmpco6a6ebk.cplex.sol'.
CPLEX> NOTE: no warmstart specified for MIP iteration, default behavior is true
NOTE: resolving with all competitive generators using storage-only solution to warmstart
Solving...

Welcome to IBM(R) ILOG(R) CPLEX(R) Interactive Optimizer 12.8.0.0
  with Simplex, Mixed Integer & Barrier Optimizers
5725-A06 5725-A29 5724-Y48 5724-Y49 5724-Y54 5724-Y55 5655-Y21
Copyright IBM Corp. 1988, 2017.  All Rights Reserved.

Type 'help' for a list of available commands.
Type 'help' followed by a command name for more
information on commands.

CPLEX> Logfile 'cplex.log' closed.
Logfile 'C:\Users\llavi\Desktop\test919\logs\tmpk71r3o07.cplex.log' open.
CPLEX> New value for parallel optimization mode: -1
CPLEX> New value for mixed integer optimality gap tolerance: 0.01
CPLEX> New value for integrality tolerance: 1e-09
CPLEX> New value for feasibility tolerance: 0.01
CPLEX> New value for deterministic time limit in ticks: 75000
CPLEX> Problem 'C:\Users\llavi\Desktop\test919\logs\tmpyj0y7_ad.pyomo.lp' read.
Read time = 0.28 sec. (13.98 ticks)
CPLEX> MIP start file 'C:\Users\llavi\Desktop\test919\logs\tmp06858wn_.cplex.mst' read.
CPLEX> Problem name         : C:\Users\llavi\Desktop\test919\logs\tmpyj0y7_ad.pyomo.lp
Objective sense      : Maximize
Variables            :   54525  [Nneg: 1,  Box: 22720,  Free: 4464,
                                 Binary: 27340]
Objective nonzeros   :    9778
Linear constraints   :  123205  [Less: 41346,  Greater: 59096,  Equal: 22763]
  Nonzeros           :  291709
  RHS nonzeros       :   67423

Variables            : Min LB: -5000.000        Max UB: 1000000.       
Objective nonzeros   : Min   : 0.04166667       Max   : 2500.000       
Linear constraints   :
  Nonzeros           : Min   : 0.04166667       Max   : 1000000.       
  RHS nonzeros       : Min   : 0.04166667       Max   : 1000000.       
CPLEX> CPXPARAM_Simplex_Tolerances_Feasibility          0.01
CPXPARAM_Parallel                                -1
CPXPARAM_DetTimeLimit                            75000
CPXPARAM_MIP_Tolerances_MIPGap                   0.01
CPXPARAM_MIP_Tolerances_Integrality              1.0000000000000001e-09
Warning:  No solution found from 1 MIP starts.
Retaining values of one MIP start for possible repair.
Tried aggregator 3 times.
MIP Presolve eliminated 88641 rows and 19713 columns.
MIP Presolve added 3358 rows and 0 columns.
MIP Presolve modified 23892 coefficients.
Aggregator did 12964 substitutions.
Reduced MIP has 24958 rows, 21296 columns, and 71141 nonzeros.
Reduced MIP has 8429 binaries, 0 generals, 0 SOSs, and 0 indicators.
Presolve time = 0.31 sec. (165.64 ticks)
Probing fixed 386 vars, tightened 2910 bounds.
Probing time = 3.13 sec. (897.90 ticks)
Tried aggregator 2 times.
MIP Presolve eliminated 872 rows and 772 columns.
MIP Presolve modified 2238 coefficients.
Aggregator did 37 substitutions.
Reduced MIP has 24049 rows, 20487 columns, and 68514 nonzeros.
Reduced MIP has 8043 binaries, 0 generals, 0 SOSs, and 0 indicators.
Presolve time = 0.14 sec. (54.10 ticks)
Probing time = 0.06 sec. (15.33 ticks)
Clique table members: 6589.
MIP emphasis: balance optimality and feasibility.
MIP search method: dynamic search.
Parallel mode: opportunistic, using up to 4 threads.
Root relaxation solution time = 0.52 sec. (498.76 ticks)

        Nodes                                         Cuts/
   Node  Left     Objective  IInf  Best Integer    Best Bound    ItCnt     Gap

      0     0   147178.5095   727                 147178.5095     2609         
      0     0   143545.0689    84                   Cuts: 163     2731         
      0     0   142542.3507    86                    Cuts: 64     2765         
      0     0   142542.3507    81                    Cuts: 30     2782         
      0     0   142542.3507    91                Flowcuts: 27     2796         
      0     0   142542.3507    98                Flowcuts: 28     2807         
Repair heuristic found nothing.
      0     3   131754.4278    99                 139022.6935     2840         
Elapsed time = 25.59 sec. (9124.93 ticks, tree = 0.02 MB, solutions = 0)
     66    32   102498.0482    81                 130918.9384     3856         
    169    64    infeasible                       130918.9384     7132         
    274    80    88640.9503    61                 130918.9384    10750         
    328    91    92280.0169    49                 130918.9384    11015         
    421   107    86636.6914    55                 130918.9384    12196         
    505   145     5213.3823    24                 130918.9384    13856         
    613   162    -9194.2630    28                 130918.9384    15003         
    677   238   -59498.9742    30                 130918.9384    15866         
    753   277    infeasible                       130918.9384    16458         
   1040   385    infeasible                       129584.7092    20434         
Elapsed time = 30.39 sec. (12278.92 ticks, tree = 4.31 MB, solutions = 0)
   1105   425    infeasible                       129584.7092    20637         
   1155   430    infeasible                       129584.7092    20681         
   1192   431     5254.7333    11                 129584.7092    20707         
   1226   430    infeasible                       129584.7092    20721         
   1254   430    infeasible                       129584.7092    20730         
   1282   430     5254.7333    11                 129584.7092    20747         
   1308   431    -2006.2080    13                 129584.7092    20757         
   1332   431     5254.7333    11                 129584.7092    20771         
   1354   430     3735.8009    13                 129584.7092    20779         
   1378   429    infeasible                       129584.7092    20793         
Elapsed time = 39.70 sec. (22119.63 ticks, tree = 4.35 MB, solutions = 0)
   1399   429    infeasible                       129584.7092    20804         
   1418   430     3735.8009    13                 129584.7092    20812         
   1437   429    infeasible                       129584.7092    20828         
   1455   430    infeasible                       129584.7092    20833         
   1473   429    infeasible                       129584.7092    20842         
   1490   429    -2006.2080    13                 129584.7092    20844         
   1506   430       91.3183    11                 129584.7092    20855         
   1522   430       91.3183    11                 129584.7092    20863         
   1559   440    15861.3789    71                 129584.7092    21424         
   1651   446    12826.8331    80                 129584.7092    22728         
Elapsed time = 50.91 sec. (32135.58 ticks, tree = 4.10 MB, solutions = 0)
   1746   493    infeasible                       129584.7092    24140         
   1839   563   -10127.1928    12                 129584.7092    25416         
   1900   586     -192.9095    40                 129584.7092    26354         
   2004   489    -2006.2080    13                 129584.7092    23625         
   2092   671   -15986.0042    69                 129584.7092    28635         
   2178   572       91.3183    11                 129584.7092    25566         
   2259   572     5254.7333    12                 129584.7092    25600         
   2365   838    infeasible                       129584.7092    32039         
   2545  1222   -27780.0852    26                 118649.1647    42308         
   2769   756    -3553.1642    12                 118649.1647    31636         
Elapsed time = 68.45 sec. (41727.30 ticks, tree = 10.85 MB, solutions = 0)
   2970  1350     4619.3917    41                 118649.1647    44877         
   3229   996    infeasible                       118649.1647    36516         
   3471  1272   -12165.7620    10                 118649.1647    43577         
   3660  1502    infeasible                       118649.1647    47353         
   3832  1344   -10465.4079    43                 118649.1647    46114         
   3956  1583  -120035.7725    35                 118649.1647    49161         
   4061  1668   -20691.6350    30                 118649.1647    50243         
   4152  1705  -109638.1190    53                 118649.1647    52304         
   4224  1754   -13979.7358    40                 118649.1647    54108         
   4260  2237     3031.6619   142                  22761.1188    69663         
Elapsed time = 98.33 sec. (57603.51 ticks, tree = 20.02 MB, solutions = 0)
   4502   131    -7570.9066   177                  15306.1118    71898         
   4757   366    -1556.8340    61                  15281.8326    73689         
   5037   674   -36814.5076    50                  15281.8326    74972         
*  5117   670      integral     0   -36814.5076    15281.8326    75032  141.51%
   5121   711    -6238.7490     6   -36814.5076    15281.8326    76925  141.51%
   5218   648        0.0000    41   -36814.5076    15281.8326    77179  141.51%
   5361   610    -7212.9642     3   -36814.5076    15281.8326    77244  141.51%
   5388   744        cutoff         -36814.5076    15281.8326    78589  141.51%
   5416   617        cutoff         -36814.5076    15281.8326    77311  141.51%
   5445   712    -7212.9642     4   -36814.5076    15281.8326    77431  141.51%
   5466   734    -7212.9642     3   -36814.5076    15281.8326    78309  141.51%
Elapsed time = 114.98 sec. (67441.46 ticks, tree = 9.26 MB, solutions = 1)
   5481   739    -7472.6755     5   -36814.5076    15281.8326    78343  141.51%
   5497   797        cutoff         -36814.5076    15281.8326    78871  141.51%
   5524   799        0.0000     4   -36814.5076    15281.8326    78875  141.51%
   5536   817        cutoff         -36814.5076    15281.8326    79244  141.51%
   5558   798    -7472.6755     6   -36814.5076    15281.8326    78887  141.51%
   5575   816        cutoff         -36814.5076    15281.8326    78935  141.51%
   5592   817        cutoff         -36814.5076    15281.8326    78938  141.51%

Cover cuts applied:  5
Implied bound cuts applied:  2
Flow cuts applied:  291
Mixed integer rounding cuts applied:  15
Gomory fractional cuts applied:  30

Root node processing (before b&c):
  Real time             =   25.36 sec. (9106.92 ticks)
Parallel b&c, 4 threads:
  Real time             =   94.11 sec. (66980.37 ticks)
  Sync time (average)   =    0.48 sec.
  Wait time (average)   =    0.02 sec.
                          ------------
Total (root+branch&cut) =  119.47 sec. (76087.29 ticks)

Solution pool: 1 solution saved.

MIP - Deterministic time limit exceeded, integer feasible:  Objective = -3.6814507641e+04
Current MIP best bound =  1.5281832609e+04 (gap = 52096.3, 141.51%)
Solution time =  119.48 sec.  Iterations = 79443  Nodes = 5605 (842)
Deterministic time = 76087.44 ticks  (636.80 ticks/sec)

CPLEX> Incumbent solution written to file 'C:\Users\llavi\Desktop\test919\logs\tmpa5u4hujk.cplex.sol'.
CPLEX> Exporting results... 
